0 4412
2401 4287
4802 4216
7203 4145
9604 4088
12005 4037
14406 3992
16807 3958
19208 3931
21609 3881
24010 3847
26411 3829
28812 3797
31213 3765
33614 3739
36015 3720
38416 3688
40817 3677
43218 3672
45619 3666
48020 3665
50421 3664
52822 3636
55223 3627
57624 3601
60025 3590
64827 3587
67228 3583
69629 3580
81634 3578
91238 3573
93639 3570
96040 3563
98441 3557
100842 3552
103243 3537
105644 3529
108045 3528
120050 3527
122451 3515
124852 3510
127253 3506
132055 3504
134456 3503
136857 3502
835548 3499
837949 3495
